p wcnf 38 79 69
10 -29 0
10 -30 0
10 -31 0
10 -32 0
1 -1 0
1 -2 0
1 -3 0
1 -4 0
1 -5 0
1 -6 0
1 -7 0
1 -8 0
1 -9 0
1 -10 0
1 -11 0
1 -12 0
1 -13 0
1 -14 0
1 -15 0
1 -16 0
1 -17 0
1 -18 0
1 -19 0
1 -20 0
1 -21 0
1 -22 0
1 -23 0
1 -24 0
1 -25 0
1 -26 0
1 -27 0
1 -28 0
69 29 33 34 0
69 -33 -3 0
69 -33 -4 0
69 -33 -5 0
69 -33 -6 0
69 -33 -10 0
69 -33 -12 0
69 -33 -13 0
69 -34 -17 0
69 -34 -18 0
69 -34 -19 0
69 -34 -20 0
69 -34 -24 0
69 -34 -26 0
69 -34 -27 0
69 30 35 36 0
69 -35 -3 0
69 -35 -4 0
69 -35 -5 0
69 -35 -6 0
69 -35 -10 0
69 -35 -11 0
69 -35 -14 0
69 -36 -17 0
69 -36 -18 0
69 -36 -19 0
69 -36 -20 0
69 -36 -24 0
69 -36 -25 0
69 -36 -28 0
69 31 37 38 0
69 -37 -1 0
69 -37 -2 0
69 -37 -3 0
69 -37 -4 0
69 -37 -9 0
69 -37 -12 0
69 -37 -14 0
69 -38 -15 0
69 -38 -16 0
69 -38 -17 0
69 -38 -18 0
69 -38 -23 0
69 -38 -26 0
69 -38 -28 0
69 32 4 5 6 7 9 11 13 0
69 32 18 19 20 21 23 25 27 0
